NAME: kroA100
DIMENSION: 18
EDGE_WEIGHT_TYPE: EUC_2D
NODE_COORD_SECTION
1 1380 939
2 2848 96
3 3510 1671
4 457 334
5 3888 666
6 984 965
7 2721 1482
8 1286 525
9 2716 1432
10 738 1325
11 1251 1832
12 2728 1698
13 3815 169
14 3683 1533
15 1247 1945
16 123 862
17 1234 1946
18 252 1240
ACCEPTED_PROBABILITIES
0.0
0.04
0.76
0.63
0.87
0.14
0.84
0.59
0.88
0.53
0.18
0.36
0.51
0.75
0.71
0.6
0.29
0.04
OUTSOURCING_COSTS
0.0
18.86
42.95
94.75
142.82
62.62
36.65
140.58
59.77
29.86
133.82
73.04
25.53
31.62
46.43
82.79
143.59
109.95
